c Output_time 26.03.2020 18:13:11_+0100 1585242791424103975
c ** Program information **
c program_name                          "QBRG_debug"
c version                               "0.3.20"
c date                                  "25.3.2020"
c gid_id                                "673970833836058123f633335630c185360d632e"
c author                                "Oliver Kullmann"
c url                                   "https://github.com/OKullmann/oklibrary/blob/master/Satisfiability/Transformers/Generators/Random/QBRG.cpp"
c ** Machine information **
c machine_name                          "chyna-Lenovo-G50-70"
c bogomips                              3791.08
c ** Compilation information **
c compiler_version                      "g++ 7.5.0"
c compilation_date                      "Mar_26_2020 11:16:30"
c compilation_options                   "--std=c++17 -pedantic -fmax-errors=5 -Wall -Wextra -g -D_GLIBCXX_DEBUG"
c NDEBUG                                0
c OPTIMIZE                              0
c ** Parameters **
c command-line                          "./QBRG_debug" "e40 a40 40" "216*1,1|2-2,1|3-3,1" "" "1,t" ""
c output                                "QuBlRaGe_120_216_1585242791423955446.qdimacs"
c options                               "filtered,renamed"
c num_quantifier_blocks                 3
c  quantifier_blocks                    1:e1-40 2:a41-80 3:e81-120
c num_clause-blocks                     1
c  clause-blocks                        216 * {1-40,1,1/2} | {41-80,1,1/2} | {81-120,1,1/2}
c num_e-seeds                           30+2=32
c  e-seeds                              1 0 1 0 4 120 2 40 1 40 0 40 1 216 3 1 1 1 1 2 2 2 1 1 2 3 3 1 1 2 1 1585242791423954952
p cnf 119 216
e 1 2 3 4 5 6 7 8 9 10 11 12 13 14 15 16 17 18 19 20 21 22 23 24 25 26 27 28 29 30 31 32 33 34 35 36 37 38 39 0
a 40 41 42 43 44 45 46 47 48 49 50 51 52 53 54 55 56 57 58 59 60 61 62 63 64 65 66 67 68 69 70 71 72 73 74 75 76 77 78 79 0
e 80 81 82 83 84 85 86 87 88 89 90 91 92 93 94 95 96 97 98 99 100 101 102 103 104 105 106 107 108 109 110 111 112 113 114 115 116 117 118 119 0
18 -61 -80 0
2 58 80 0
-21 65 80 0
-30 75 80 0
15 57 -81 0
-11 -73 -81 0
10 77 -81 0
3 -60 81 0
3 -65 81 0
29 46 -82 0
-37 -59 -82 0
-4 60 82 0
-20 62 82 0
39 75 82 0
21 -78 82 0
-17 41 -83 0
-21 62 -83 0
-20 74 -83 0
16 79 -83 0
35 49 83 0
-5 55 83 0
-23 57 83 0
-8 43 -84 0
-32 -53 -84 0
-8 -76 -84 0
-17 43 84 0
34 -49 84 0
-38 49 -85 0
14 -51 -85 0
-28 51 -85 0
-15 -54 -85 0
20 55 -85 0
-1 64 -85 0
9 -74 -85 0
-21 -78 -85 0
13 63 85 0
30 76 85 0
27 79 85 0
32 -47 -86 0
-17 45 86 0
-7 57 86 0
6 57 -87 0
36 -62 -87 0
27 -63 -87 0
7 70 -87 0
27 -44 87 0
-17 -42 -88 0
33 -46 -88 0
12 -58 -88 0
23 -65 -88 0
22 69 -88 0
3 78 -88 0
-6 46 88 0
-26 -40 -89 0
12 71 -89 0
29 -47 89 0
-10 -60 89 0
-21 62 89 0
16 -66 89 0
13 -43 -90 0
-9 43 -90 0
31 47 -90 0
-14 54 -91 0
16 67 -91 0
22 46 91 0
-24 -47 91 0
-22 61 91 0
19 -48 -92 0
20 57 -92 0
10 69 92 0
31 -76 92 0
-39 -77 92 0
22 -42 -93 0
22 46 -93 0
7 51 -93 0
33 65 -93 0
-3 76 -93 0
-11 -66 93 0
-12 59 94 0
-5 -68 94 0
-39 48 -95 0
28 53 -95 0
4 -79 -95 0
16 71 95 0
-30 -78 95 0
26 -43 -96 0
-13 47 -96 0
-19 -79 -96 0
25 47 96 0
-37 53 96 0
7 75 96 0
-35 62 -97 0
-8 -62 97 0
-12 -71 -98 0
-3 -73 -98 0
-3 79 -98 0
-31 -41 98 0
-11 -79 98 0
21 -40 99 0
-14 54 99 0
22 57 -100 0
34 -79 -100 0
-3 -41 100 0
17 -44 100 0
-20 -60 100 0
18 -68 100 0
34 49 -101 0
17 67 101 0
-31 67 101 0
-20 -72 101 0
-28 77 -102 0
37 -54 102 0
-35 78 102 0
5 -65 -103 0
-8 77 -103 0
-25 -70 103 0
8 -77 -104 0
-17 -40 104 0
-39 -58 104 0
8 -60 104 0
-13 66 104 0
-21 48 -105 0
-17 -51 -105 0
22 -70 -105 0
-23 -78 -105 0
-36 47 105 0
27 63 105 0
-30 75 105 0
-33 -77 105 0
-17 41 -106 0
-30 -56 -106 0
10 76 -106 0
29 58 106 0
10 44 -107 0
1 45 -107 0
-16 52 -107 0
18 61 -107 0
30 -69 -107 0
5 78 -107 0
-27 44 107 0
4 -55 107 0
12 63 107 0
-14 -69 107 0
-35 -56 -108 0
10 -65 -108 0
-2 -77 -108 0
-7 -53 108 0
-11 53 108 0
3 58 108 0
22 70 -109 0
32 46 109 0
38 73 109 0
37 79 109 0
-24 -61 -110 0
31 49 -111 0
-12 -55 -111 0
-38 55 -111 0
-29 -79 -111 0
18 -48 111 0
10 65 111 0
-21 -54 -112 0
36 59 -112 0
-11 63 -112 0
-13 57 112 0
11 40 -113 0
-8 -41 -113 0
23 49 -113 0
7 -62 -113 0
-18 63 -113 0
-10 -40 113 0
33 47 113 0
-15 50 113 0
26 -63 113 0
7 79 113 0
-37 57 -114 0
5 75 -114 0
9 -49 114 0
38 53 114 0
-6 55 114 0
16 69 114 0
32 71 114 0
-13 -52 -115 0
-35 -61 -115 0
-14 -49 115 0
26 -64 115 0
31 65 115 0
31 68 115 0
-23 -69 115 0
-30 48 -116 0
-5 54 -116 0
12 64 -116 0
27 67 -116 0
36 69 -116 0
-11 -42 116 0
-5 71 116 0
-10 75 116 0
-2 41 -117 0
21 -43 -117 0
-39 47 -117 0
6 -56 -117 0
30 -68 -117 0
27 -74 -117 0
-12 -46 117 0
29 -57 117 0
9 -65 117 0
-26 67 117 0
-15 53 -118 0
23 -72 -118 0
-36 50 118 0
-18 74 118 0
27 75 118 0
27 42 -119 0
-37 -54 -119 0
12 -73 -119 0
-34 74 -119 0
-22 -41 119 0
